(set-logic QF_UF)
(declare-fun G101 () Bool)
(declare-fun G104 () Bool)
(declare-fun G107 () Bool)
(declare-fun G110 () Bool)
(declare-fun G113 () Bool)
(declare-fun G116 () Bool)
(declare-fun G119 () Bool)
(declare-fun G122 () Bool)
(declare-fun G125 () Bool)
(declare-fun G128 () Bool)
(declare-fun G131 () Bool)
(declare-fun G134 () Bool)
(declare-fun G137 () Bool)
(declare-fun G140 () Bool)
(declare-fun G143 () Bool)
(declare-fun G146 () Bool)
(declare-fun G210 () Bool)
(declare-fun G214 () Bool)
(declare-fun G217 () Bool)
(declare-fun G221 () Bool)
(declare-fun G224 () Bool)
(declare-fun G227 () Bool)
(declare-fun G234 () Bool)
(declare-fun G237 () Bool)
(declare-fun G469 () Bool)
(declare-fun G472 () Bool)
(declare-fun G475 () Bool)
(declare-fun G478 () Bool)
(declare-fun G898 () Bool)
(declare-fun G900 () Bool)
(declare-fun G902 () Bool)
(declare-fun G952 () Bool)
(declare-fun G953 () Bool)
(assert (let ((.def_0 (not G952))) (let ((.def_1 (and .def_0 G953))) (let ((.def_2 (not .def_1))) (let ((.def_3 (not G953))) (let ((.def_4 (and .def_3 G227))) (let ((.def_5 (not G140))) (let ((.def_6 (and .def_5 G110))) (let ((.def_7 (not .def_6))) (let ((.def_8 (not G110))) (let ((.def_9 (and .def_8 G140))) (let ((.def_10 (not .def_9))) (let ((.def_11 (and .def_10 .def_7))) (let ((.def_12 (and .def_11 .def_4))) (let ((.def_13 (not .def_12))) (let ((.def_14 (not .def_4))) (let ((.def_15 (not .def_11))) (let ((.def_16 (and .def_15 .def_14))) (let ((.def_17 (not .def_16))) (let ((.def_18 (and .def_17 .def_13))) (let ((.def_19 (not G137))) (let ((.def_20 (and .def_19 G134))) (let ((.def_21 (not .def_20))) (let ((.def_22 (not G134))) (let ((.def_23 (and .def_22 G137))) (let ((.def_24 (not .def_23))) (let ((.def_25 (and .def_24 .def_21))) (let ((.def_26 (not G131))) (let ((.def_27 (and .def_26 .def_25))) (let ((.def_28 (not .def_27))) (let ((.def_29 (not .def_25))) (let ((.def_30 (and .def_29 G131))) (let ((.def_31 (not .def_30))) (let ((.def_32 (and .def_31 .def_28))) (let ((.def_33 (not .def_32))) (let ((.def_34 (not G101))) (let ((.def_35 (not G107))) (let ((.def_36 (and G104 .def_35))) (let ((.def_37 (not .def_36))) (let ((.def_38 (not G104))) (let ((.def_39 (and .def_38 G107))) (let ((.def_40 (not .def_39))) (let ((.def_41 (and .def_40 .def_37))) (let ((.def_42 (and .def_41 .def_34))) (let ((.def_43 (not .def_42))) (let ((.def_44 (not .def_41))) (let ((.def_45 (and .def_44 G101))) (let ((.def_46 (not .def_45))) (let ((.def_47 (and .def_46 .def_43))) (let ((.def_48 (not G146))) (let ((.def_49 (and .def_48 G143))) (let ((.def_50 (not .def_49))) (let ((.def_51 (not G143))) (let ((.def_52 (and G146 .def_51))) (let ((.def_53 (not .def_52))) (let ((.def_54 (and .def_53 .def_50))) (let ((.def_55 (not G128))) (let ((.def_56 (and .def_55 .def_54))) (let ((.def_57 (not .def_56))) (let ((.def_58 (not .def_54))) (let ((.def_59 (and G128 .def_58))) (let ((.def_60 (not .def_59))) (let ((.def_61 (and .def_60 .def_57))) (let ((.def_62 (and .def_61 .def_47))) (let ((.def_63 (not .def_62))) (let ((.def_64 (not .def_61))) (let ((.def_65 (not .def_47))) (let ((.def_66 (and .def_65 .def_64))) (let ((.def_67 (not .def_66))) (let ((.def_68 (and .def_67 .def_63))) (let ((.def_69 (not .def_68))) (let ((.def_70 (and .def_69 .def_33))) (let ((.def_71 (not .def_70))) (let ((.def_72 (and .def_68 .def_32))) (let ((.def_73 (not .def_72))) (let ((.def_74 (and .def_73 .def_71))) (let ((.def_75 (and .def_74 .def_18))) (let ((.def_76 (not .def_75))) (let ((.def_77 (not .def_18))) (let ((.def_78 (not .def_74))) (let ((.def_79 (and .def_78 .def_77))) (let ((.def_80 (not .def_79))) (let ((.def_81 (and .def_80 .def_76))) (let ((.def_82 (and G140 .def_8))) (let ((.def_83 (not .def_82))) (let ((.def_84 (and .def_83 .def_7))) (let ((.def_85 (and .def_4 .def_84))) (let ((.def_86 (not .def_85))) (let ((.def_87 (not .def_84))) (let ((.def_88 (and .def_14 .def_87))) (let ((.def_89 (not .def_88))) (let ((.def_90 (and .def_89 .def_86))) (let ((.def_91 (and .def_64 .def_65))) (let ((.def_92 (not .def_91))) (let ((.def_93 (and .def_47 .def_61))) (let ((.def_94 (not .def_93))) (let ((.def_95 (and .def_94 .def_92))) (let ((.def_96 (not .def_95))) (let ((.def_97 (and .def_33 .def_96))) (let ((.def_98 (not .def_97))) (let ((.def_99 (and .def_32 .def_95))) (let ((.def_100 (not .def_99))) (let ((.def_101 (and .def_100 .def_98))) (let ((.def_102 (and .def_101 .def_90))) (let ((.def_103 (not .def_102))) (let ((.def_104 (not .def_90))) (let ((.def_105 (not .def_101))) (let ((.def_106 (and .def_105 .def_104))) (let ((.def_107 (not .def_106))) (let ((.def_108 (and .def_107 .def_103))) (let ((.def_109 (not .def_108))) (let ((.def_110 (not G902))) (let ((.def_111 (and .def_110 .def_109))) (let ((.def_112 (not .def_111))) (let ((.def_113 (and .def_112 G469))) (let ((.def_114 (not .def_113))) (let ((.def_115 (not G469))) (let ((.def_116 (and .def_115 .def_111))) (let ((.def_117 (not .def_116))) (let ((.def_118 (and .def_117 .def_114))) (let ((.def_119 (and .def_110 G234))) (let ((.def_120 (not .def_119))) (let ((.def_121 (and G221 .def_120))) (let ((.def_122 (not .def_121))) (let ((.def_123 (and .def_122 .def_118))) (let ((.def_124 (not G237))) (let ((.def_125 (and .def_110 .def_124))) (let ((.def_126 (not .def_125))) (let ((.def_127 (and G214 .def_126))) (let ((.def_128 (not .def_127))) (let ((.def_129 (not G119))) (let ((.def_130 (and G116 .def_129))) (let ((.def_131 (not .def_130))) (let ((.def_132 (not G116))) (let ((.def_133 (and G119 .def_132))) (let ((.def_134 (not .def_133))) (let ((.def_135 (and .def_134 .def_131))) (let ((.def_136 (not .def_135))) (let ((.def_137 (and G113 .def_136))) (let ((.def_138 (not .def_137))) (let ((.def_139 (not G113))) (let ((.def_140 (and .def_139 .def_135))) (let ((.def_141 (not .def_140))) (let ((.def_142 (and .def_141 .def_138))) (let ((.def_143 (and .def_35 G104))) (let ((.def_144 (not .def_143))) (let ((.def_145 (and G107 .def_38))) (let ((.def_146 (not .def_145))) (let ((.def_147 (and .def_146 .def_144))) (let ((.def_148 (and .def_147 .def_34))) (let ((.def_149 (not .def_148))) (let ((.def_150 (not .def_147))) (let ((.def_151 (and .def_150 G101))) (let ((.def_152 (not .def_151))) (let ((.def_153 (and .def_152 .def_149))) (let ((.def_154 (and .def_153 .def_142))) (let ((.def_155 (not .def_154))) (let ((.def_156 (not .def_153))) (let ((.def_157 (not .def_142))) (let ((.def_158 (and .def_157 .def_156))) (let ((.def_159 (not .def_158))) (let ((.def_160 (and .def_159 .def_155))) (let ((.def_161 (and .def_8 G122))) (let ((.def_162 (not .def_161))) (let ((.def_163 (not G122))) (let ((.def_164 (and G110 .def_163))) (let ((.def_165 (not .def_164))) (let ((.def_166 (and .def_165 .def_162))) (let ((.def_167 (and .def_166 .def_160))) (let ((.def_168 (not .def_167))) (let ((.def_169 (not .def_160))) (let ((.def_170 (not .def_166))) (let ((.def_171 (and .def_170 .def_169))) (let ((.def_172 (not .def_171))) (let ((.def_173 (and .def_172 .def_168))) (let ((.def_174 (not G125))) (let ((.def_175 (and .def_51 G146))) (let ((.def_176 (not .def_175))) (let ((.def_177 (and .def_50 .def_176))) (let ((.def_178 (not .def_177))) (let ((.def_179 (and G128 .def_178))) (let ((.def_180 (not .def_179))) (let ((.def_181 (and .def_177 .def_55))) (let ((.def_182 (not .def_181))) (let ((.def_183 (and .def_182 .def_180))) (let ((.def_184 (and .def_183 .def_174))) (let ((.def_185 (not .def_184))) (let ((.def_186 (not .def_183))) (let ((.def_187 (and .def_186 G125))) (let ((.def_188 (not .def_187))) (let ((.def_189 (and .def_188 .def_185))) (let ((.def_190 (and G224 .def_3))) (let ((.def_191 (and .def_190 .def_189))) (let ((.def_192 (not .def_191))) (let ((.def_193 (not .def_190))) (let ((.def_194 (not .def_189))) (let ((.def_195 (and .def_194 .def_193))) (let ((.def_196 (not .def_195))) (let ((.def_197 (and .def_196 .def_192))) (let ((.def_198 (and .def_197 .def_173))) (let ((.def_199 (not .def_198))) (let ((.def_200 (not .def_173))) (let ((.def_201 (not .def_197))) (let ((.def_202 (and .def_201 .def_200))) (let ((.def_203 (not .def_202))) (let ((.def_204 (and .def_203 .def_199))) (let ((.def_205 (and .def_204 .def_110))) (let ((.def_206 (not .def_205))) (let ((.def_207 (and .def_126 G210))) (let ((.def_208 (and .def_207 .def_206))) (let ((.def_209 (not .def_208))) (let ((.def_210 (not .def_207))) (let ((.def_211 (and .def_210 .def_205))) (let ((.def_212 (not .def_211))) (let ((.def_213 (and .def_212 .def_209))) (let ((.def_214 (not .def_213))) (let ((.def_215 (and .def_214 .def_128))) (let ((.def_216 (and G237 G234))) (let ((.def_217 (not .def_216))) (let ((.def_218 (not G898))) (let ((.def_219 (and .def_218 G953 .def_217 G902))) (let ((.def_220 (not .def_219))) (let ((.def_221 (and .def_217 .def_3 G952))) (let ((.def_222 (not .def_221))) (let ((.def_223 (and .def_222 .def_220))) (let ((.def_224 (not .def_223))) (let ((.def_225 (and G128 .def_129))) (let ((.def_226 (not .def_225))) (let ((.def_227 (and G119 .def_55))) (let ((.def_228 (not .def_227))) (let ((.def_229 (and .def_228 .def_226))) (let ((.def_230 (not .def_229))) (let ((.def_231 (and .def_230 G110))) (let ((.def_232 (not .def_231))) (let ((.def_233 (and .def_8 .def_229))) (let ((.def_234 (not .def_233))) (let ((.def_235 (and .def_234 .def_232))) (let ((.def_236 (and .def_174 G140))) (let ((.def_237 (not .def_236))) (let ((.def_238 (and .def_5 G125))) (let ((.def_239 (not .def_238))) (let ((.def_240 (and .def_239 .def_237))) (let ((.def_241 (and .def_240 .def_48))) (let ((.def_242 (not .def_241))) (let ((.def_243 (not .def_240))) (let ((.def_244 (and G146 .def_243))) (let ((.def_245 (not .def_244))) (let ((.def_246 (and .def_245 .def_242))) (let ((.def_247 (not .def_246))) (let ((.def_248 (and .def_247 .def_235))) (let ((.def_249 (not .def_248))) (let ((.def_250 (not .def_235))) (let ((.def_251 (and .def_246 .def_250))) (let ((.def_252 (not .def_251))) (let ((.def_253 (and .def_252 .def_249))) (let ((.def_254 (not .def_253))) (let ((.def_255 (and G234 G221 .def_3))) (let ((.def_256 (and G137 .def_255))) (let ((.def_257 (not .def_256))) (let ((.def_258 (not .def_255))) (let ((.def_259 (and .def_258 .def_19))) (let ((.def_260 (not .def_259))) (let ((.def_261 (and .def_260 .def_257))) (let ((.def_262 (not .def_261))) (let ((.def_263 (and .def_262 .def_254))) (let ((.def_264 (not .def_263))) (let ((.def_265 (and .def_261 .def_253))) (let ((.def_266 (not .def_265))) (let ((.def_267 (and .def_266 .def_264))) (let ((.def_268 (not .def_267))) (let ((.def_269 (and .def_268 .def_110))) (let ((.def_270 (not .def_269))) (let ((.def_271 (and .def_120 G217))) (let ((.def_272 (and .def_271 .def_270))) (let ((.def_273 (not .def_272))) (let ((.def_274 (not .def_271))) (let ((.def_275 (and .def_274 .def_269))) (let ((.def_276 (not .def_275))) (let ((.def_277 (and .def_276 .def_273))) (let ((.def_278 (and .def_3 .def_124 G210))) (let ((.def_279 (and G101 .def_278))) (let ((.def_280 (not .def_279))) (let ((.def_281 (not .def_278))) (let ((.def_282 (and .def_34 .def_281))) (let ((.def_283 (not .def_282))) (let ((.def_284 (and .def_283 .def_280))) (let ((.def_285 (not .def_284))) (let ((.def_286 (and .def_132 G119))) (let ((.def_287 (not .def_286))) (let ((.def_288 (and .def_131 .def_287))) (let ((.def_289 (and .def_139 .def_288))) (let ((.def_290 (not .def_289))) (let ((.def_291 (not .def_288))) (let ((.def_292 (and .def_291 G113))) (let ((.def_293 (not .def_292))) (let ((.def_294 (and .def_293 .def_290))) (let ((.def_295 (and .def_183 .def_32))) (let ((.def_296 (not .def_295))) (let ((.def_297 (and .def_33 .def_186))) (let ((.def_298 (not .def_297))) (let ((.def_299 (and .def_298 .def_296))) (let ((.def_300 (and .def_299 .def_294))) (let ((.def_301 (not .def_300))) (let ((.def_302 (not .def_294))) (let ((.def_303 (not .def_299))) (let ((.def_304 (and .def_303 .def_302))) (let ((.def_305 (not .def_304))) (let ((.def_306 (and .def_305 .def_301))) (let ((.def_307 (and .def_306 .def_285))) (let ((.def_308 (not .def_307))) (let ((.def_309 (not .def_306))) (let ((.def_310 (and .def_284 .def_309))) (let ((.def_311 (not .def_310))) (let ((.def_312 (and .def_311 .def_308))) (let ((.def_313 (not .def_312))) (let ((.def_314 (and .def_110 .def_313))) (let ((.def_315 (not .def_314))) (let ((.def_316 (and G472 .def_315))) (let ((.def_317 (not .def_316))) (let ((.def_318 (not G472))) (let ((.def_319 (and .def_318 .def_314))) (let ((.def_320 (not .def_319))) (let ((.def_321 (and .def_320 .def_317))) (let ((.def_322 (not .def_321))) (let ((.def_323 (and .def_322 .def_277))) (let ((.def_324 (and .def_48 .def_240))) (let ((.def_325 (not .def_324))) (let ((.def_326 (and .def_245 .def_325))) (let ((.def_327 (and .def_3 G214 .def_124))) (let ((.def_328 (and G143 .def_327))) (let ((.def_329 (not .def_328))) (let ((.def_330 (not .def_327))) (let ((.def_331 (and .def_51 .def_330))) (let ((.def_332 (not .def_331))) (let ((.def_333 (and .def_332 .def_329))) (let ((.def_334 (and .def_333 .def_26))) (let ((.def_335 (not .def_334))) (let ((.def_336 (not .def_333))) (let ((.def_337 (and .def_336 G131))) (let ((.def_338 (not .def_337))) (let ((.def_339 (and .def_338 .def_335))) (let ((.def_340 (not .def_339))) (let ((.def_341 (and .def_340 .def_326))) (let ((.def_342 (not .def_341))) (let ((.def_343 (not .def_326))) (let ((.def_344 (and .def_343 .def_339))) (let ((.def_345 (not .def_344))) (let ((.def_346 (and .def_345 .def_342))) (let ((.def_347 (and G122 .def_139))) (let ((.def_348 (not .def_347))) (let ((.def_349 (and .def_163 G113))) (let ((.def_350 (not .def_349))) (let ((.def_351 (and .def_350 .def_348))) (let ((.def_352 (and .def_351 .def_38))) (let ((.def_353 (not .def_352))) (let ((.def_354 (not .def_351))) (let ((.def_355 (and G104 .def_354))) (let ((.def_356 (not .def_355))) (let ((.def_357 (and .def_356 .def_353))) (let ((.def_358 (not .def_357))) (let ((.def_359 (and .def_358 .def_346))) (let ((.def_360 (not .def_359))) (let ((.def_361 (not .def_346))) (let ((.def_362 (and .def_357 .def_361))) (let ((.def_363 (not .def_362))) (let ((.def_364 (and .def_363 .def_360))) (let ((.def_365 (not .def_364))) (let ((.def_366 (and .def_110 .def_365))) (let ((.def_367 (not G475))) (let ((.def_368 (and .def_367 .def_366))) (let ((.def_369 (not .def_368))) (let ((.def_370 (not .def_366))) (let ((.def_371 (and .def_370 G475))) (let ((.def_372 (not .def_371))) (let ((.def_373 (and .def_372 .def_369))) (let ((.def_374 (not .def_373))) (let ((.def_375 (and .def_3 G234 G217))) (let ((.def_376 (not .def_375))) (let ((.def_377 (and G116 .def_163))) (let ((.def_378 (not .def_377))) (let ((.def_379 (and .def_132 G122))) (let ((.def_380 (not .def_379))) (let ((.def_381 (and .def_380 .def_378))) (let ((.def_382 (not .def_381))) (let ((.def_383 (and .def_382 G107))) (let ((.def_384 (not .def_383))) (let ((.def_385 (and .def_381 .def_35))) (let ((.def_386 (not .def_385))) (let ((.def_387 (and .def_386 .def_384))) (let ((.def_388 (and .def_55 G143))) (let ((.def_389 (not .def_388))) (let ((.def_390 (and .def_51 G128))) (let ((.def_391 (not .def_390))) (let ((.def_392 (and .def_391 .def_389))) (let ((.def_393 (and .def_392 .def_22))) (let ((.def_394 (not .def_393))) (let ((.def_395 (not .def_392))) (let ((.def_396 (and G134 .def_395))) (let ((.def_397 (not .def_396))) (let ((.def_398 (and .def_397 .def_394))) (let ((.def_399 (not .def_398))) (let ((.def_400 (and .def_399 .def_387))) (let ((.def_401 (not .def_400))) (let ((.def_402 (not .def_387))) (let ((.def_403 (and .def_402 .def_398))) (let ((.def_404 (not .def_403))) (let ((.def_405 (and .def_404 .def_401))) (let ((.def_406 (not .def_405))) (let ((.def_407 (and .def_406 .def_376))) (let ((.def_408 (not .def_407))) (let ((.def_409 (and .def_405 .def_375))) (let ((.def_410 (not .def_409))) (let ((.def_411 (and .def_410 .def_408))) (let ((.def_412 (not .def_411))) (let ((.def_413 (and .def_110 .def_412))) (let ((.def_414 (not G478))) (let ((.def_415 (and .def_414 .def_413))) (let ((.def_416 (not .def_415))) (let ((.def_417 (not .def_413))) (let ((.def_418 (and .def_417 G478))) (let ((.def_419 (not .def_418))) (let ((.def_420 (and .def_419 .def_416))) (let ((.def_421 (and .def_420 .def_374))) (let ((.def_422 (and .def_421 .def_323 .def_224 .def_215 .def_123))) (let ((.def_423 (not .def_422))) (let ((.def_424 (and .def_420 .def_373))) (let ((.def_425 (not .def_277))) (let ((.def_426 (and .def_322 .def_425))) (let ((.def_427 (and .def_426 .def_224 .def_215 .def_123 .def_424))) (let ((.def_428 (not .def_427))) (let ((.def_429 (not .def_118))) (let ((.def_430 (and .def_122 .def_429))) (let ((.def_431 (and .def_424 .def_323 .def_224 .def_215 .def_430))) (let ((.def_432 (not .def_431))) (let ((.def_433 (not .def_420))) (let ((.def_434 (and .def_373 .def_433))) (let ((.def_435 (and .def_321 .def_277))) (let ((.def_436 (and .def_435 .def_434 .def_224 .def_215 .def_430))) (let ((.def_437 (not .def_436))) (let ((.def_438 (and .def_321 .def_425))) (let ((.def_439 (and .def_424 .def_438 .def_224 .def_215 .def_430))) (let ((.def_440 (not .def_439))) (let ((.def_441 (and .def_435 .def_421 .def_224 .def_215 .def_430))) (let ((.def_442 (not .def_441))) (let ((.def_443 (and .def_433 .def_374))) (let ((.def_444 (and .def_435 .def_443 .def_224 .def_215 .def_123))) (let ((.def_445 (not .def_444))) (let ((.def_446 (and .def_323 .def_434 .def_224 .def_215 .def_123))) (let ((.def_447 (not .def_446))) (let ((.def_448 (and .def_447 .def_445 .def_442 .def_440 .def_437 .def_432 .def_428 .def_423))) (let ((.def_449 (and .def_128 .def_213))) (let ((.def_450 (not G900))) (let ((.def_451 (and .def_217 G953 G902 .def_450))) (let ((.def_452 (not .def_451))) (let ((.def_453 (and .def_452 .def_222))) (let ((.def_454 (not .def_453))) (let ((.def_455 (and .def_430 .def_323 .def_454 .def_434 .def_449))) (let ((.def_456 (not .def_455))) (let ((.def_457 (and .def_430 .def_426 .def_454 .def_449 .def_424))) (let ((.def_458 (not .def_457))) (let ((.def_459 (and .def_426 .def_454 .def_434 .def_215 .def_430))) (let ((.def_460 (not .def_459))) (let ((.def_461 (and .def_430 .def_426 .def_421 .def_454 .def_215))) (let ((.def_462 (not .def_461))) (let ((.def_463 (and .def_430 .def_421 .def_323 .def_454 .def_449))) (let ((.def_464 (not .def_463))) (let ((.def_465 (and .def_421 .def_454 .def_438 .def_215 .def_123))) (let ((.def_466 (not .def_465))) (let ((.def_467 (and .def_430 .def_421 .def_454 .def_438 .def_449))) (let ((.def_468 (not .def_467))) (let ((.def_469 (and .def_430 .def_443 .def_323 .def_454 .def_215))) (let ((.def_470 (not .def_469))) (let ((.def_471 (and .def_470 .def_468 .def_466 .def_464 .def_462 .def_460 .def_458 .def_456))) (let ((.def_472 (and .def_471 .def_448))) (let ((.def_473 (not .def_472))) (let ((.def_474 (and .def_473 G902 G469))) (let ((.def_475 (and .def_474 .def_81))) (let ((.def_476 (not .def_475))) (let ((.def_477 (not .def_81))) (let ((.def_478 (not .def_474))) (let ((.def_479 (and .def_478 .def_477))) (let ((.def_480 (not .def_479))) (let ((.def_481 (and .def_480 .def_476))) (let ((.def_482 (not .def_481))) (let ((.def_483 (and .def_482 .def_2))) (let ((.def_484 (not .def_483))) (let ((.def_485 (and .def_440 G110))) (let ((.def_486 (not .def_485))) (let ((.def_487 (and .def_439 .def_8))) (let ((.def_488 (not .def_487))) (let ((.def_489 (and .def_488 .def_486))) (let ((.def_490 (and G125 .def_466))) (let ((.def_491 (not .def_490))) (let ((.def_492 (and .def_174 .def_465))) (let ((.def_493 (not .def_492))) (let ((.def_494 (and .def_493 .def_491))) (let ((.def_495 (and .def_432 G101))) (let ((.def_496 (not .def_495))) (let ((.def_497 (and .def_34 .def_431))) (let ((.def_498 (not .def_497))) (let ((.def_499 (and .def_498 .def_496))) (let ((.def_500 (not .def_499))) (let ((.def_501 (and .def_436 .def_35))) (let ((.def_502 (not .def_501))) (let ((.def_503 (and G107 .def_437))) (let ((.def_504 (not .def_503))) (let ((.def_505 (and .def_504 .def_502))) (let ((.def_506 (and .def_457 .def_19))) (let ((.def_507 (not .def_506))) (let ((.def_508 (and G137 .def_458))) (let ((.def_509 (not .def_508))) (let ((.def_510 (and .def_509 .def_507))) (let ((.def_511 (not .def_510))) (let ((.def_512 (and G125 .def_186))) (let ((.def_513 (not .def_512))) (let ((.def_514 (and .def_513 .def_185))) (let ((.def_515 (and .def_190 .def_514))) (let ((.def_516 (not .def_515))) (let ((.def_517 (not .def_514))) (let ((.def_518 (and .def_517 .def_193))) (let ((.def_519 (not .def_518))) (let ((.def_520 (and .def_519 .def_516))) (let ((.def_521 (and .def_200 .def_520))) (let ((.def_522 (not .def_521))) (let ((.def_523 (not .def_520))) (let ((.def_524 (and .def_523 .def_173))) (let ((.def_525 (not .def_524))) (let ((.def_526 (and .def_525 .def_522))) (let ((.def_527 (and .def_473 G902 .def_207))) (let ((.def_528 (and .def_527 .def_526))) (let ((.def_529 (not .def_528))) (let ((.def_530 (not .def_527))) (let ((.def_531 (not .def_526))) (let ((.def_532 (and .def_531 .def_530))) (let ((.def_533 (not .def_532))) (let ((.def_534 (and .def_533 .def_529))) (let ((.def_535 (not .def_534))) (let ((.def_536 (and .def_535 .def_2))) (let ((.def_537 (not .def_536))) (let ((.def_538 (and G224 G898))) (let ((.def_539 (not .def_538))) (let ((.def_540 (and .def_539 G953))) (let ((.def_541 (and .def_156 .def_157))) (let ((.def_542 (not .def_541))) (let ((.def_543 (and .def_542 .def_155))) (let ((.def_544 (and .def_166 .def_543))) (let ((.def_545 (not .def_544))) (let ((.def_546 (not .def_543))) (let ((.def_547 (and .def_546 .def_170))) (let ((.def_548 (not .def_547))) (let ((.def_549 (and .def_548 .def_545))) (let ((.def_550 (and .def_218 G953))) (let ((.def_551 (not .def_550))) (let ((.def_552 (and .def_551 .def_549))) (let ((.def_553 (not .def_552))) (let ((.def_554 (not .def_448))) (let ((.def_555 (and .def_3 .def_554))) (let ((.def_556 (and .def_555 .def_553))) (let ((.def_557 (not .def_556))) (let ((.def_558 (not .def_555))) (let ((.def_559 (and .def_558 .def_552))) (let ((.def_560 (not .def_559))) (let ((.def_561 (and .def_560 .def_557))) (let ((.def_562 (and .def_561 .def_540))) (let ((.def_563 (not .def_562))) (let ((.def_564 (not .def_540))) (let ((.def_565 (not .def_561))) (let ((.def_566 (and .def_565 .def_564))) (let ((.def_567 (not .def_566))) (let ((.def_568 (and .def_567 .def_563))) (let ((.def_569 (not .def_568))) (let ((.def_570 (and G900 G227))) (let ((.def_571 (not .def_570))) (let ((.def_572 (and G953 .def_571))) (let ((.def_573 (and G125 .def_5))) (let ((.def_574 (not .def_573))) (let ((.def_575 (and .def_237 .def_574))) (let ((.def_576 (and G137 .def_22))) (let ((.def_577 (not .def_576))) (let ((.def_578 (and .def_577 .def_21))) (let ((.def_579 (not .def_578))) (let ((.def_580 (and .def_579 G131))) (let ((.def_581 (not .def_580))) (let ((.def_582 (and .def_26 .def_578))) (let ((.def_583 (not .def_582))) (let ((.def_584 (and .def_583 .def_581))) (let ((.def_585 (and .def_584 .def_61))) (let ((.def_586 (not .def_585))) (let ((.def_587 (not .def_584))) (let ((.def_588 (and .def_64 .def_587))) (let ((.def_589 (not .def_588))) (let ((.def_590 (and .def_589 .def_586))) (let ((.def_591 (and .def_590 .def_575))) (let ((.def_592 (not .def_591))) (let ((.def_593 (not .def_575))) (let ((.def_594 (not .def_590))) (let ((.def_595 (and .def_594 .def_593))) (let ((.def_596 (not .def_595))) (let ((.def_597 (and .def_596 .def_592))) (let ((.def_598 (and G953 .def_450))) (let ((.def_599 (not .def_598))) (let ((.def_600 (and .def_599 .def_597))) (let ((.def_601 (not .def_600))) (let ((.def_602 (not .def_471))) (let ((.def_603 (and .def_602 .def_3))) (let ((.def_604 (and .def_603 .def_601))) (let ((.def_605 (not .def_604))) (let ((.def_606 (not .def_603))) (let ((.def_607 (and .def_606 .def_600))) (let ((.def_608 (not .def_607))) (let ((.def_609 (and .def_608 .def_605))) (let ((.def_610 (and .def_609 .def_572))) (let ((.def_611 (not .def_610))) (let ((.def_612 (not .def_572))) (let ((.def_613 (not .def_609))) (let ((.def_614 (and .def_613 .def_612))) (let ((.def_615 (not .def_614))) (let ((.def_616 (and .def_615 .def_611))) (let ((.def_617 (and .def_463 .def_26))) (let ((.def_618 (not .def_617))) (let ((.def_619 (and .def_464 G131))) (let ((.def_620 (not .def_619))) (let ((.def_621 (and .def_620 .def_618))) (let ((.def_622 (and .def_281 .def_34))) (let ((.def_623 (not .def_622))) (let ((.def_624 (and .def_278 G101))) (let ((.def_625 (not .def_624))) (let ((.def_626 (and .def_625 .def_623))) (let ((.def_627 (and .def_473 G472 G902))) (let ((.def_628 (and .def_186 .def_33))) (let ((.def_629 (not .def_628))) (let ((.def_630 (and .def_629 .def_296))) (let ((.def_631 (and .def_630 .def_294))) (let ((.def_632 (not .def_631))) (let ((.def_633 (not .def_630))) (let ((.def_634 (and .def_302 .def_633))) (let ((.def_635 (not .def_634))) (let ((.def_636 (and .def_635 .def_632))) (let ((.def_637 (and .def_636 .def_627))) (let ((.def_638 (not .def_637))) (let ((.def_639 (not .def_627))) (let ((.def_640 (not .def_636))) (let ((.def_641 (and .def_640 .def_639))) (let ((.def_642 (not .def_641))) (let ((.def_643 (and .def_642 .def_638))) (let ((.def_644 (not .def_643))) (let ((.def_645 (and .def_644 .def_626))) (let ((.def_646 (not .def_645))) (let ((.def_647 (not .def_626))) (let ((.def_648 (and .def_643 .def_647))) (let ((.def_649 (not .def_648))) (let ((.def_650 (and .def_649 .def_646))) (let ((.def_651 (not .def_650))) (let ((.def_652 (and .def_651 .def_2))) (let ((.def_653 (not .def_652))) (let ((.def_654 (and .def_446 .def_132))) (let ((.def_655 (not .def_654))) (let ((.def_656 (and G116 .def_447))) (let ((.def_657 (not .def_656))) (let ((.def_658 (and .def_657 .def_655))) (let ((.def_659 (and .def_462 G146))) (let ((.def_660 (not .def_659))) (let ((.def_661 (and .def_461 .def_48))) (let ((.def_662 (not .def_661))) (let ((.def_663 (and .def_662 .def_660))) (let ((.def_664 (not .def_663))) (let ((.def_665 (and .def_473 G902 G478))) (let ((.def_666 (and .def_411 .def_665))) (let ((.def_667 (not .def_666))) (let ((.def_668 (not .def_665))) (let ((.def_669 (and .def_412 .def_668))) (let ((.def_670 (not .def_669))) (let ((.def_671 (and .def_670 .def_667))) (let ((.def_672 (not .def_671))) (let ((.def_673 (and .def_2 .def_672))) (let ((.def_674 (not .def_673))) (let ((.def_675 (and .def_5 .def_467))) (let ((.def_676 (not .def_675))) (let ((.def_677 (and G140 .def_468))) (let ((.def_678 (not .def_677))) (let ((.def_679 (and .def_678 .def_676))) (let ((.def_680 (and .def_209 .def_212))) (let ((.def_681 (and .def_114 .def_117))) (let ((.def_682 (and G475 .def_370))) (let ((.def_683 (not .def_682))) (let ((.def_684 (and .def_369 .def_683))) (let ((.def_685 (and .def_413 .def_414))) (let ((.def_686 (not .def_685))) (let ((.def_687 (and .def_686 .def_419))) (let ((.def_688 (and .def_273 .def_276))) (let ((.def_689 (and .def_314 .def_318))) (let ((.def_690 (not .def_689))) (let ((.def_691 (and .def_315 G472))) (let ((.def_692 (not .def_691))) (let ((.def_693 (and .def_692 .def_690))) (let ((.def_694 (and .def_693 .def_128 .def_688 .def_687 .def_684 .def_122 .def_681 .def_680))) (let ((.def_695 (not .def_694))) (let ((.def_696 (and .def_3 .def_0 .def_695))) (let ((.def_697 (and .def_221 .def_430 .def_435 .def_449 .def_424))) (let ((.def_698 (not .def_697))) (let ((.def_699 (and .def_221 .def_323 .def_449 .def_424 .def_123))) (let ((.def_700 (not .def_699))) (let ((.def_701 (and .def_221 .def_435 .def_421 .def_449 .def_123))) (let ((.def_702 (not .def_701))) (let ((.def_703 (and .def_221 .def_435 .def_434 .def_449 .def_123))) (let ((.def_704 (not .def_703))) (let ((.def_705 (and .def_221 .def_435 .def_215 .def_123 .def_424))) (let ((.def_706 (not .def_705))) (let ((.def_707 (and .def_127 .def_213))) (let ((.def_708 (and .def_221 .def_435 .def_123 .def_424 .def_707))) (let ((.def_709 (not .def_708))) (let ((.def_710 (and .def_118 .def_121))) (let ((.def_711 (and .def_221 .def_435 .def_710 .def_449 .def_424))) (let ((.def_712 (not .def_711))) (let ((.def_713 (and .def_221 .def_438 .def_449 .def_424 .def_123))) (let ((.def_714 (not .def_713))) (let ((.def_715 (and .def_714 .def_712 .def_709 .def_706 .def_704 .def_702 .def_700 .def_698))) (let ((.def_716 (and .def_471 .def_715 .def_448))) (let ((.def_717 (and .def_3 .def_716 .def_695 G952))) (let ((.def_718 (or .def_717 .def_696))) (let ((.def_719 (and .def_163 .def_444))) (let ((.def_720 (not .def_719))) (let ((.def_721 (and .def_445 G122))) (let ((.def_722 (not .def_721))) (let ((.def_723 (and .def_722 .def_720))) (let ((.def_724 (not .def_723))) (let ((.def_725 (and .def_724 .def_718 .def_679 .def_674 .def_664 .def_658 .def_653 .def_621 .def_616 .def_569 .def_537 .def_511 .def_505 .def_500 .def_494 .def_489 .def_484))) .def_725)))))))))))))))))))))))))))))))))))))))))))))))))))))))))))))))))))))))))))))))))))))))))))))))))))))))))))))))))))))))))))))))))))))))))))))))))))))))))))))))))))))))))))))))))))))))))))))))))))))))))))))))))))))))))))))))))))))))))))))))))))))))))))))))))))))))))))))))))))))))))))))))))))))))))))))))))))))))))))))))))))))))))))))))))))))))))))))))))))))))))))))))))))))))))))))))))))))))))))))))))))))))))))))))))))))))))))))))))))))))))))))))))))))))))))))))))))))))))))))))))))))))))))))))))))))))))))))))))))))))))))))))))))))))))))))))))))))))))))))))))))))))))))))))))))))))))))))))))))))))))))))))))))))))))))))))))))))))))))))))))))))))))))))))))))))))))))))))))))))))))))))))))))))))))))))))))))))))))))))))))))))))
(check-sat)
